7 100 456
0 47 5
1 1 19 20 33
2 97 35 14 30
3 23 79 5 5
4 77 87 11 21
5 3 9 22 54
6 5 27 25 37
7 41 53 2 9
8 51 87 18 42
9 67 73 10 32
10 89 45 26 18
11 71 99 14 75
12 11 1 22 32
13 85 85 9 15
14 57 11 11 43
15 57 85 18 79
16 71 33 24 36
17 61 13 15 20
18 39 15 23 73
19 13 59 16 45
20 43 99 14 59
21 87 73 8 28
22 11 37 5 24
23 21 11 12 23
24 77 81 8 15
25 3 63 16 61
26 47 95 12 54
27 53 75 15 15
28 73 55 9 43
29 81 71 2 31
30 89 75 10 10
31 11 9 2 7
32 27 37 3 8
33 95 59 20 61
34 63 63 3 66
35 37 21 13 72
36 33 47 25 73
37 23 63 23 75
38 13 55 8 18
39 47 93 16 70
40 45 43 9 3
41 83 7 14 75
42 69 91 4 41
43 13 11 13 52
44 37 15 7 66
45 53 59 16 75
46 97 83 18 70
47 75 31 16 20
